NAME:  pp5
TYPE: ATSP
COMMENT: 5 city problem
DIMENSION:  5
EDGE_WEIGHT_TYPE: EXPLICIT
EDGE_WEIGHT_FORMAT: FULL_MATRIX 
EDGE_WEIGHT_SECTION
 999    3    5    8    4
   3  999    2    9    5
   5    3  999    5    2
   7    8    4  999    1
   3    4    3    4  999
EOF
